10 10 3

0 211 428 408 414 217 371 290 124 481 
298 0 53 398 382 296 409 278 157 431 
84 390 0 375 144 233 284 241 278 122 
175 429 168 0 431 140 95 95 260 469 
416 500 93 153 0 53 96 50 385 98 
409 369 205 95 403 0 95 420 253 485 
410 200 262 483 325 191 0 150 463 488 
403 264 247 371 386 453 170 0 489 212 
424 489 304 472 153 172 384 198 0 282 
429 325 241 169 441 392 382 179 216 0 

129.6 0 4
129.6 1 4
129.6 2 6
129.6 3 4
129.6 4 8
129.6 5 7
129.6 6 0
129.6 7 3
129.6 8 0
129.6 9 8

